&control
    calculation = 'nscf'
    prefix      = 'Be'
    pseudo_dir  = './'
    outdir = './'
    tprnfor = .true.,
    tstress = .true.,
    etot_conv_thr = 1.0d-8
    forc_conv_thr = 1.0d-6
/
&system
    ibrav = 4
    a     = 2.265579
    c     = 3.5694197999999995
    nat   = 2, ntyp = 1
    ecutwfc = 80
    ecutrho = 320,
    occupations = 'smearing'
    degauss = 0.02
    nosym = .true.
/
&electrons
    diagonalization = 'david'
    conv_thr  = 1.0d-10
/
ATOMIC_SPECIES
Be 9.012182   Be_ONCV_PBE-1.0.upf
ATOMIC_POSITIONS {crystal}
Be    0.33333    0.66667    0.25000 
Be    0.66667    0.33333    0.75000
K_POINTS {crystal}
1728
      0.0000000000       0.0000000000       0.0000000000       0.0005787037
      0.0000000000       0.0000000000       0.0833333333       0.0005787037
      0.0000000000       0.0000000000       0.1666666667       0.0005787037
      0.0000000000       0.0000000000       0.2500000000       0.0005787037
      0.0000000000       0.0000000000       0.3333333333       0.0005787037
      0.0000000000       0.0000000000       0.4166666667       0.0005787037
      0.0000000000       0.0000000000       0.5000000000       0.0005787037
      0.0000000000       0.0000000000       0.5833333333       0.0005787037
      0.0000000000       0.0000000000       0.6666666667       0.0005787037
      0.0000000000       0.0000000000       0.7500000000       0.0005787037
      0.0000000000       0.0000000000       0.8333333333       0.0005787037
      0.0000000000       0.0000000000       0.9166666667       0.0005787037
      0.0000000000       0.0833333333       0.0000000000       0.0005787037
      0.0000000000       0.0833333333       0.0833333333       0.0005787037
      0.0000000000       0.0833333333       0.1666666667       0.0005787037
      0.0000000000       0.0833333333       0.2500000000       0.0005787037
      0.0000000000       0.0833333333       0.3333333333       0.0005787037
      0.0000000000       0.0833333333       0.4166666667       0.0005787037
      0.0000000000       0.0833333333       0.5000000000       0.0005787037
      0.0000000000       0.0833333333       0.5833333333       0.0005787037
      0.0000000000       0.0833333333       0.6666666667       0.0005787037
      0.0000000000       0.0833333333       0.7500000000       0.0005787037
      0.0000000000       0.0833333333       0.8333333333       0.0005787037
      0.0000000000       0.0833333333       0.9166666667       0.0005787037
      0.0000000000       0.1666666667       0.0000000000       0.0005787037
      0.0000000000       0.1666666667       0.0833333333       0.0005787037
      0.0000000000       0.1666666667       0.1666666667       0.0005787037
      0.0000000000       0.1666666667       0.2500000000       0.0005787037
      0.0000000000       0.1666666667       0.3333333333       0.0005787037
      0.0000000000       0.1666666667       0.4166666667       0.0005787037
      0.0000000000       0.1666666667       0.5000000000       0.0005787037
      0.0000000000       0.1666666667       0.5833333333       0.0005787037
      0.0000000000       0.1666666667       0.6666666667       0.0005787037
      0.0000000000       0.1666666667       0.7500000000       0.0005787037
      0.0000000000       0.1666666667       0.8333333333       0.0005787037
      0.0000000000       0.1666666667       0.9166666667       0.0005787037
      0.0000000000       0.2500000000       0.0000000000       0.0005787037
      0.0000000000       0.2500000000       0.0833333333       0.0005787037
      0.0000000000       0.2500000000       0.1666666667       0.0005787037
      0.0000000000       0.2500000000       0.2500000000       0.0005787037
      0.0000000000       0.2500000000       0.3333333333       0.0005787037
      0.0000000000       0.2500000000       0.4166666667       0.0005787037
      0.0000000000       0.2500000000       0.5000000000       0.0005787037
      0.0000000000       0.2500000000       0.5833333333       0.0005787037
      0.0000000000       0.2500000000       0.6666666667       0.0005787037
      0.0000000000       0.2500000000       0.7500000000       0.0005787037
      0.0000000000       0.2500000000       0.8333333333       0.0005787037
      0.0000000000       0.2500000000       0.9166666667       0.0005787037
      0.0000000000       0.3333333333       0.0000000000       0.0005787037
      0.0000000000       0.3333333333       0.0833333333       0.0005787037
      0.0000000000       0.3333333333       0.1666666667       0.0005787037
      0.0000000000       0.3333333333       0.2500000000       0.0005787037
      0.0000000000       0.3333333333       0.3333333333       0.0005787037
      0.0000000000       0.3333333333       0.4166666667       0.0005787037
      0.0000000000       0.3333333333       0.5000000000       0.0005787037
      0.0000000000       0.3333333333       0.5833333333       0.0005787037
      0.0000000000       0.3333333333       0.6666666667       0.0005787037
      0.0000000000       0.3333333333       0.7500000000       0.0005787037
      0.0000000000       0.3333333333       0.8333333333       0.0005787037
      0.0000000000       0.3333333333       0.9166666667       0.0005787037
      0.0000000000       0.4166666667       0.0000000000       0.0005787037
      0.0000000000       0.4166666667       0.0833333333       0.0005787037
      0.0000000000       0.4166666667       0.1666666667       0.0005787037
      0.0000000000       0.4166666667       0.2500000000       0.0005787037
      0.0000000000       0.4166666667       0.3333333333       0.0005787037
      0.0000000000       0.4166666667       0.4166666667       0.0005787037
      0.0000000000       0.4166666667       0.5000000000       0.0005787037
      0.0000000000       0.4166666667       0.5833333333       0.0005787037
      0.0000000000       0.4166666667       0.6666666667       0.0005787037
      0.0000000000       0.4166666667       0.7500000000       0.0005787037
      0.0000000000       0.4166666667       0.8333333333       0.0005787037
      0.0000000000       0.4166666667       0.9166666667       0.0005787037
      0.0000000000       0.5000000000       0.0000000000       0.0005787037
      0.0000000000       0.5000000000       0.0833333333       0.0005787037
      0.0000000000       0.5000000000       0.1666666667       0.0005787037
      0.0000000000       0.5000000000       0.2500000000       0.0005787037
      0.0000000000       0.5000000000       0.3333333333       0.0005787037
      0.0000000000       0.5000000000       0.4166666667       0.0005787037
      0.0000000000       0.5000000000       0.5000000000       0.0005787037
      0.0000000000       0.5000000000       0.5833333333       0.0005787037
      0.0000000000       0.5000000000       0.6666666667       0.0005787037
      0.0000000000       0.5000000000       0.7500000000       0.0005787037
      0.0000000000       0.5000000000       0.8333333333       0.0005787037
      0.0000000000       0.5000000000       0.9166666667       0.0005787037
      0.0000000000       0.5833333333       0.0000000000       0.0005787037
      0.0000000000       0.5833333333       0.0833333333       0.0005787037
      0.0000000000       0.5833333333       0.1666666667       0.0005787037
      0.0000000000       0.5833333333       0.2500000000       0.0005787037
      0.0000000000       0.5833333333       0.3333333333       0.0005787037
      0.0000000000       0.5833333333       0.4166666667       0.0005787037
      0.0000000000       0.5833333333       0.5000000000       0.0005787037
      0.0000000000       0.5833333333       0.5833333333       0.0005787037
      0.0000000000       0.5833333333       0.6666666667       0.0005787037
      0.0000000000       0.5833333333       0.7500000000       0.0005787037
      0.0000000000       0.5833333333       0.8333333333       0.0005787037
      0.0000000000       0.5833333333       0.9166666667       0.0005787037
      0.0000000000       0.6666666667       0.0000000000       0.0005787037
      0.0000000000       0.6666666667       0.0833333333       0.0005787037
      0.0000000000       0.6666666667       0.1666666667       0.0005787037
      0.0000000000       0.6666666667       0.2500000000       0.0005787037
      0.0000000000       0.6666666667       0.3333333333       0.0005787037
      0.0000000000       0.6666666667       0.4166666667       0.0005787037
      0.0000000000       0.6666666667       0.5000000000       0.0005787037
      0.0000000000       0.6666666667       0.5833333333       0.0005787037
      0.0000000000       0.6666666667       0.6666666667       0.0005787037
      0.0000000000       0.6666666667       0.7500000000       0.0005787037
      0.0000000000       0.6666666667       0.8333333333       0.0005787037
      0.0000000000       0.6666666667       0.9166666667       0.0005787037
      0.0000000000       0.7500000000       0.0000000000       0.0005787037
      0.0000000000       0.7500000000       0.0833333333       0.0005787037
      0.0000000000       0.7500000000       0.1666666667       0.0005787037
      0.0000000000       0.7500000000       0.2500000000       0.0005787037
      0.0000000000       0.7500000000       0.3333333333       0.0005787037
      0.0000000000       0.7500000000       0.4166666667       0.0005787037
      0.0000000000       0.7500000000       0.5000000000       0.0005787037
      0.0000000000       0.7500000000       0.5833333333       0.0005787037
      0.0000000000       0.7500000000       0.6666666667       0.0005787037
      0.0000000000       0.7500000000       0.7500000000       0.0005787037
      0.0000000000       0.7500000000       0.8333333333       0.0005787037
      0.0000000000       0.7500000000       0.9166666667       0.0005787037
      0.0000000000       0.8333333333       0.0000000000       0.0005787037
      0.0000000000       0.8333333333       0.0833333333       0.0005787037
      0.0000000000       0.8333333333       0.1666666667       0.0005787037
      0.0000000000       0.8333333333       0.2500000000       0.0005787037
      0.0000000000       0.8333333333       0.3333333333       0.0005787037
      0.0000000000       0.8333333333       0.4166666667       0.0005787037
      0.0000000000       0.8333333333       0.5000000000       0.0005787037
      0.0000000000       0.8333333333       0.5833333333       0.0005787037
      0.0000000000       0.8333333333       0.6666666667       0.0005787037
      0.0000000000       0.8333333333       0.7500000000       0.0005787037
      0.0000000000       0.8333333333       0.8333333333       0.0005787037
      0.0000000000       0.8333333333       0.9166666667       0.0005787037
      0.0000000000       0.9166666667       0.0000000000       0.0005787037
      0.0000000000       0.9166666667       0.0833333333       0.0005787037
      0.0000000000       0.9166666667       0.1666666667       0.0005787037
      0.0000000000       0.9166666667       0.2500000000       0.0005787037
      0.0000000000       0.9166666667       0.3333333333       0.0005787037
      0.0000000000       0.9166666667       0.4166666667       0.0005787037
      0.0000000000       0.9166666667       0.5000000000       0.0005787037
      0.0000000000       0.9166666667       0.5833333333       0.0005787037
      0.0000000000       0.9166666667       0.6666666667       0.0005787037
      0.0000000000       0.9166666667       0.7500000000       0.0005787037
      0.0000000000       0.9166666667       0.8333333333       0.0005787037
      0.0000000000       0.9166666667       0.9166666667       0.0005787037
      0.0833333333       0.0000000000       0.0000000000       0.0005787037
      0.0833333333       0.0000000000       0.0833333333       0.0005787037
      0.0833333333       0.0000000000       0.1666666667       0.0005787037
      0.0833333333       0.0000000000       0.2500000000       0.0005787037
      0.0833333333       0.0000000000       0.3333333333       0.0005787037
      0.0833333333       0.0000000000       0.4166666667       0.0005787037
      0.0833333333       0.0000000000       0.5000000000       0.0005787037
      0.0833333333       0.0000000000       0.5833333333       0.0005787037
      0.0833333333       0.0000000000       0.6666666667       0.0005787037
      0.0833333333       0.0000000000       0.7500000000       0.0005787037
      0.0833333333       0.0000000000       0.8333333333       0.0005787037
      0.0833333333       0.0000000000       0.9166666667       0.0005787037
      0.0833333333       0.0833333333       0.0000000000       0.0005787037
      0.0833333333       0.0833333333       0.0833333333       0.0005787037
      0.0833333333       0.0833333333       0.1666666667       0.0005787037
      0.0833333333       0.0833333333       0.2500000000       0.0005787037
      0.0833333333       0.0833333333       0.3333333333       0.0005787037
      0.0833333333       0.0833333333       0.4166666667       0.0005787037
      0.0833333333       0.0833333333       0.5000000000       0.0005787037
      0.0833333333       0.0833333333       0.5833333333       0.0005787037
      0.0833333333       0.0833333333       0.6666666667       0.0005787037
      0.0833333333       0.0833333333       0.7500000000       0.0005787037
      0.0833333333       0.0833333333       0.8333333333       0.0005787037
      0.0833333333       0.0833333333       0.9166666667       0.0005787037
      0.0833333333       0.1666666667       0.0000000000       0.0005787037
      0.0833333333       0.1666666667       0.0833333333       0.0005787037
      0.0833333333       0.1666666667       0.1666666667       0.0005787037
      0.0833333333       0.1666666667       0.2500000000       0.0005787037
      0.0833333333       0.1666666667       0.3333333333       0.0005787037
      0.0833333333       0.1666666667       0.4166666667       0.0005787037
      0.0833333333       0.1666666667       0.5000000000       0.0005787037
      0.0833333333       0.1666666667       0.5833333333       0.0005787037
      0.0833333333       0.1666666667       0.6666666667       0.0005787037
      0.0833333333       0.1666666667       0.7500000000       0.0005787037
      0.0833333333       0.1666666667       0.8333333333       0.0005787037
      0.0833333333       0.1666666667       0.9166666667       0.0005787037
      0.0833333333       0.2500000000       0.0000000000       0.0005787037
      0.0833333333       0.2500000000       0.0833333333       0.0005787037
      0.0833333333       0.2500000000       0.1666666667       0.0005787037
      0.0833333333       0.2500000000       0.2500000000       0.0005787037
      0.0833333333       0.2500000000       0.3333333333       0.0005787037
      0.0833333333       0.2500000000       0.4166666667       0.0005787037
      0.0833333333       0.2500000000       0.5000000000       0.0005787037
      0.0833333333       0.2500000000       0.5833333333       0.0005787037
      0.0833333333       0.2500000000       0.6666666667       0.0005787037
      0.0833333333       0.2500000000       0.7500000000       0.0005787037
      0.0833333333       0.2500000000       0.8333333333       0.0005787037
      0.0833333333       0.2500000000       0.9166666667       0.0005787037
      0.0833333333       0.3333333333       0.0000000000       0.0005787037
      0.0833333333       0.3333333333       0.0833333333       0.0005787037
      0.0833333333       0.3333333333       0.1666666667       0.0005787037
      0.0833333333       0.3333333333       0.2500000000       0.0005787037
      0.0833333333       0.3333333333       0.3333333333       0.0005787037
      0.0833333333       0.3333333333       0.4166666667       0.0005787037
      0.0833333333       0.3333333333       0.5000000000       0.0005787037
      0.0833333333       0.3333333333       0.5833333333       0.0005787037
      0.0833333333       0.3333333333       0.6666666667       0.0005787037
      0.0833333333       0.3333333333       0.7500000000       0.0005787037
      0.0833333333       0.3333333333       0.8333333333       0.0005787037
      0.0833333333       0.3333333333       0.9166666667       0.0005787037
      0.0833333333       0.4166666667       0.0000000000       0.0005787037
      0.0833333333       0.4166666667       0.0833333333       0.0005787037
      0.0833333333       0.4166666667       0.1666666667       0.0005787037
      0.0833333333       0.4166666667       0.2500000000       0.0005787037
      0.0833333333       0.4166666667       0.3333333333       0.0005787037
      0.0833333333       0.4166666667       0.4166666667       0.0005787037
      0.0833333333       0.4166666667       0.5000000000       0.0005787037
      0.0833333333       0.4166666667       0.5833333333       0.0005787037
      0.0833333333       0.4166666667       0.6666666667       0.0005787037
      0.0833333333       0.4166666667       0.7500000000       0.0005787037
      0.0833333333       0.4166666667       0.8333333333       0.0005787037
      0.0833333333       0.4166666667       0.9166666667       0.0005787037
      0.0833333333       0.5000000000       0.0000000000       0.0005787037
      0.0833333333       0.5000000000       0.0833333333       0.0005787037
      0.0833333333       0.5000000000       0.1666666667       0.0005787037
      0.0833333333       0.5000000000       0.2500000000       0.0005787037
      0.0833333333       0.5000000000       0.3333333333       0.0005787037
      0.0833333333       0.5000000000       0.4166666667       0.0005787037
      0.0833333333       0.5000000000       0.5000000000       0.0005787037
      0.0833333333       0.5000000000       0.5833333333       0.0005787037
      0.0833333333       0.5000000000       0.6666666667       0.0005787037
      0.0833333333       0.5000000000       0.7500000000       0.0005787037
      0.0833333333       0.5000000000       0.8333333333       0.0005787037
      0.0833333333       0.5000000000       0.9166666667       0.0005787037
      0.0833333333       0.5833333333       0.0000000000       0.0005787037
      0.0833333333       0.5833333333       0.0833333333       0.0005787037
      0.0833333333       0.5833333333       0.1666666667       0.0005787037
      0.0833333333       0.5833333333       0.2500000000       0.0005787037
      0.0833333333       0.5833333333       0.3333333333       0.0005787037
      0.0833333333       0.5833333333       0.4166666667       0.0005787037
      0.0833333333       0.5833333333       0.5000000000       0.0005787037
      0.0833333333       0.5833333333       0.5833333333       0.0005787037
      0.0833333333       0.5833333333       0.6666666667       0.0005787037
      0.0833333333       0.5833333333       0.7500000000       0.0005787037
      0.0833333333       0.5833333333       0.8333333333       0.0005787037
      0.0833333333       0.5833333333       0.9166666667       0.0005787037
      0.0833333333       0.6666666667       0.0000000000       0.0005787037
      0.0833333333       0.6666666667       0.0833333333       0.0005787037
      0.0833333333       0.6666666667       0.1666666667       0.0005787037
      0.0833333333       0.6666666667       0.2500000000       0.0005787037
      0.0833333333       0.6666666667       0.3333333333       0.0005787037
      0.0833333333       0.6666666667       0.4166666667       0.0005787037
      0.0833333333       0.6666666667       0.5000000000       0.0005787037
      0.0833333333       0.6666666667       0.5833333333       0.0005787037
      0.0833333333       0.6666666667       0.6666666667       0.0005787037
      0.0833333333       0.6666666667       0.7500000000       0.0005787037
      0.0833333333       0.6666666667       0.8333333333       0.0005787037
      0.0833333333       0.6666666667       0.9166666667       0.0005787037
      0.0833333333       0.7500000000       0.0000000000       0.0005787037
      0.0833333333       0.7500000000       0.0833333333       0.0005787037
      0.0833333333       0.7500000000       0.1666666667       0.0005787037
      0.0833333333       0.7500000000       0.2500000000       0.0005787037
      0.0833333333       0.7500000000       0.3333333333       0.0005787037
      0.0833333333       0.7500000000       0.4166666667       0.0005787037
      0.0833333333       0.7500000000       0.5000000000       0.0005787037
      0.0833333333       0.7500000000       0.5833333333       0.0005787037
      0.0833333333       0.7500000000       0.6666666667       0.0005787037
      0.0833333333       0.7500000000       0.7500000000       0.0005787037
      0.0833333333       0.7500000000       0.8333333333       0.0005787037
      0.0833333333       0.7500000000       0.9166666667       0.0005787037
      0.0833333333       0.8333333333       0.0000000000       0.0005787037
      0.0833333333       0.8333333333       0.0833333333       0.0005787037
      0.0833333333       0.8333333333       0.1666666667       0.0005787037
      0.0833333333       0.8333333333       0.2500000000       0.0005787037
      0.0833333333       0.8333333333       0.3333333333       0.0005787037
      0.0833333333       0.8333333333       0.4166666667       0.0005787037
      0.0833333333       0.8333333333       0.5000000000       0.0005787037
      0.0833333333       0.8333333333       0.5833333333       0.0005787037
      0.0833333333       0.8333333333       0.6666666667       0.0005787037
      0.0833333333       0.8333333333       0.7500000000       0.0005787037
      0.0833333333       0.8333333333       0.8333333333       0.0005787037
      0.0833333333       0.8333333333       0.9166666667       0.0005787037
      0.0833333333       0.9166666667       0.0000000000       0.0005787037
      0.0833333333       0.9166666667       0.0833333333       0.0005787037
      0.0833333333       0.9166666667       0.1666666667       0.0005787037
      0.0833333333       0.9166666667       0.2500000000       0.0005787037
      0.0833333333       0.9166666667       0.3333333333       0.0005787037
      0.0833333333       0.9166666667       0.4166666667       0.0005787037
      0.0833333333       0.9166666667       0.5000000000       0.0005787037
      0.0833333333       0.9166666667       0.5833333333       0.0005787037
      0.0833333333       0.9166666667       0.6666666667       0.0005787037
      0.0833333333       0.9166666667       0.7500000000       0.0005787037
      0.0833333333       0.9166666667       0.8333333333       0.0005787037
      0.0833333333       0.9166666667       0.9166666667       0.0005787037
      0.1666666667       0.0000000000       0.0000000000       0.0005787037
      0.1666666667       0.0000000000       0.0833333333       0.0005787037
      0.1666666667       0.0000000000       0.1666666667       0.0005787037
      0.1666666667       0.0000000000       0.2500000000       0.0005787037
      0.1666666667       0.0000000000       0.3333333333       0.0005787037
      0.1666666667       0.0000000000       0.4166666667       0.0005787037
      0.1666666667       0.0000000000       0.5000000000       0.0005787037
      0.1666666667       0.0000000000       0.5833333333       0.0005787037
      0.1666666667       0.0000000000       0.6666666667       0.0005787037
      0.1666666667       0.0000000000       0.7500000000       0.0005787037
      0.1666666667       0.0000000000       0.8333333333       0.0005787037
      0.1666666667       0.0000000000       0.9166666667       0.0005787037
      0.1666666667       0.0833333333       0.0000000000       0.0005787037
      0.1666666667       0.0833333333       0.0833333333       0.0005787037
      0.1666666667       0.0833333333       0.1666666667       0.0005787037
      0.1666666667       0.0833333333       0.2500000000       0.0005787037
      0.1666666667       0.0833333333       0.3333333333       0.0005787037
      0.1666666667       0.0833333333       0.4166666667       0.0005787037
      0.1666666667       0.0833333333       0.5000000000       0.0005787037
      0.1666666667       0.0833333333       0.5833333333       0.0005787037
      0.1666666667       0.0833333333       0.6666666667       0.0005787037
      0.1666666667       0.0833333333       0.7500000000       0.0005787037
      0.1666666667       0.0833333333       0.8333333333       0.0005787037
      0.1666666667       0.0833333333       0.9166666667       0.0005787037
      0.1666666667       0.1666666667       0.0000000000       0.0005787037
      0.1666666667       0.1666666667       0.0833333333       0.0005787037
      0.1666666667       0.1666666667       0.1666666667       0.0005787037
      0.1666666667       0.1666666667       0.2500000000       0.0005787037
      0.1666666667       0.1666666667       0.3333333333       0.0005787037
      0.1666666667       0.1666666667       0.4166666667       0.0005787037
      0.1666666667       0.1666666667       0.5000000000       0.0005787037
      0.1666666667       0.1666666667       0.5833333333       0.0005787037
      0.1666666667       0.1666666667       0.6666666667       0.0005787037
      0.1666666667       0.1666666667       0.7500000000       0.0005787037
      0.1666666667       0.1666666667       0.8333333333       0.0005787037
      0.1666666667       0.1666666667       0.9166666667       0.0005787037
      0.1666666667       0.2500000000       0.0000000000       0.0005787037
      0.1666666667       0.2500000000       0.0833333333       0.0005787037
      0.1666666667       0.2500000000       0.1666666667       0.0005787037
      0.1666666667       0.2500000000       0.2500000000       0.0005787037
      0.1666666667       0.2500000000       0.3333333333       0.0005787037
      0.1666666667       0.2500000000       0.4166666667       0.0005787037
      0.1666666667       0.2500000000       0.5000000000       0.0005787037
      0.1666666667       0.2500000000       0.5833333333       0.0005787037
      0.1666666667       0.2500000000       0.6666666667       0.0005787037
      0.1666666667       0.2500000000       0.7500000000       0.0005787037
      0.1666666667       0.2500000000       0.8333333333       0.0005787037
      0.1666666667       0.2500000000       0.9166666667       0.0005787037
      0.1666666667       0.3333333333       0.0000000000       0.0005787037
      0.1666666667       0.3333333333       0.0833333333       0.0005787037
      0.1666666667       0.3333333333       0.1666666667       0.0005787037
      0.1666666667       0.3333333333       0.2500000000       0.0005787037
      0.1666666667       0.3333333333       0.3333333333       0.0005787037
      0.1666666667       0.3333333333       0.4166666667       0.0005787037
      0.1666666667       0.3333333333       0.5000000000       0.0005787037
      0.1666666667       0.3333333333       0.5833333333       0.0005787037
      0.1666666667       0.3333333333       0.6666666667       0.0005787037
      0.1666666667       0.3333333333       0.7500000000       0.0005787037
      0.1666666667       0.3333333333       0.8333333333       0.0005787037
      0.1666666667       0.3333333333       0.9166666667       0.0005787037
      0.1666666667       0.4166666667       0.0000000000       0.0005787037
      0.1666666667       0.4166666667       0.0833333333       0.0005787037
      0.1666666667       0.4166666667       0.1666666667       0.0005787037
      0.1666666667       0.4166666667       0.2500000000       0.0005787037
      0.1666666667       0.4166666667       0.3333333333       0.0005787037
      0.1666666667       0.4166666667       0.4166666667       0.0005787037
      0.1666666667       0.4166666667       0.5000000000       0.0005787037
      0.1666666667       0.4166666667       0.5833333333       0.0005787037
      0.1666666667       0.4166666667       0.6666666667       0.0005787037
      0.1666666667       0.4166666667       0.7500000000       0.0005787037
      0.1666666667       0.4166666667       0.8333333333       0.0005787037
      0.1666666667       0.4166666667       0.9166666667       0.0005787037
      0.1666666667       0.5000000000       0.0000000000       0.0005787037
      0.1666666667       0.5000000000       0.0833333333       0.0005787037
      0.1666666667       0.5000000000       0.1666666667       0.0005787037
      0.1666666667       0.5000000000       0.2500000000       0.0005787037
      0.1666666667       0.5000000000       0.3333333333       0.0005787037
      0.1666666667       0.5000000000       0.4166666667       0.0005787037
      0.1666666667       0.5000000000       0.5000000000       0.0005787037
      0.1666666667       0.5000000000       0.5833333333       0.0005787037
      0.1666666667       0.5000000000       0.6666666667       0.0005787037
      0.1666666667       0.5000000000       0.7500000000       0.0005787037
      0.1666666667       0.5000000000       0.8333333333       0.0005787037
      0.1666666667       0.5000000000       0.9166666667       0.0005787037
      0.1666666667       0.5833333333       0.0000000000       0.0005787037
      0.1666666667       0.5833333333       0.0833333333       0.0005787037
      0.1666666667       0.5833333333       0.1666666667       0.0005787037
      0.1666666667       0.5833333333       0.2500000000       0.0005787037
      0.1666666667       0.5833333333       0.3333333333       0.0005787037
      0.1666666667       0.5833333333       0.4166666667       0.0005787037
      0.1666666667       0.5833333333       0.5000000000       0.0005787037
      0.1666666667       0.5833333333       0.5833333333       0.0005787037
      0.1666666667       0.5833333333       0.6666666667       0.0005787037
      0.1666666667       0.5833333333       0.7500000000       0.0005787037
      0.1666666667       0.5833333333       0.8333333333       0.0005787037
      0.1666666667       0.5833333333       0.9166666667       0.0005787037
      0.1666666667       0.6666666667       0.0000000000       0.0005787037
      0.1666666667       0.6666666667       0.0833333333       0.0005787037